Traveling Salesman Problem/TSP_generados/Aleatorio1620390904_8.tsp
NAME: Aleatorio1620390904_8.tsp
COMMENT: Randomly generated scenario
TYPE: TSP
DIMENSION: 8
EDGE_WEIGHT_TYPE: ATT
NODE_COORD_SECTION
1 10.98 20.66
2 4.32 8.98
3 47.61 43.01
4 2.35 28.48
5 42.45 24.64
6 49.37 12.13
7 14.89 14.05
8 14.53 43.14
