Traveling Salesman Problem/TSP_generados/Aleatorio1620390904_8.opt.tour
NAME: Aleatorio1620390904_8.opt.tour
COMMENT: Optimal solution for Aleatorio1620390904_8 (156.86500450050872)
TYPE: TOUR
DIMENSION: 8
TOUR_SECTION
1 2 7 6 5 3 8 4
-1
EOF
